
  22    4
  10   10   10   10

   0   0   0   0   0   2 2 3 
   3  10  10  10  10   4 7 6 5 4 
   1  10  10  10  10   3 11 7 6 
   6  10  10  10  10   2 11 8 
   2  10  10  10  10   2 10 9 
   6  10  10  10  10   1 8 
  10  10  10  10  10   3 15 14 12 
   1  10  10  10  10   2 14 9 
   7  10  10  10  10   3 21 15 13 
   7  10  10  10  10   3 18 15 14 
   8  10  10  10  10   3 21 17 13 
  10  10  10  10  10   2 17 13 
   6  10  10  10  10   2 18 16 
   8  10  10  10  10   2 21 16 
   4  10  10  10  10   1 17 
  10  10  10  10  10   2 20 19 
   6  10  10  10  10   2 20 19 
   1  10  10  10  10   2 20 19 
   6  10  10  10  10   1 22
   4  10  10  10  10   1 22
   4  10  10  10  10   1 22
   0   0   0   0   0   0 
